
Gurobi 11.0.0 (linux64) logging started Mon Jul 22 11:09:03 2024

Set parameter LogFile to value "/lustre1/scratch/348/vsc34888/JointResearch/05.Models/06.Benchmarking/M.Random_forest/RTS24_mod1_ByStages_nc300/openStarNet_RTS24_mod1_ByStages_nc300.log"
Set parameter Method to value 2
Set parameter MIPFocus to value 1
Set parameter Presolve to value 2
Set parameter RINS to value 100
Set parameter MIPGap to value 0.01
Set parameter Threads to value 36
Set parameter TimeLimit to value 259200
Set parameter IterationLimit to value 760000000
Gurobi Optimizer version 11.0.0 build v11.0.0rc2 (linux64 - "Rocky Linux 8.9 (Green Obsidian)")

CPU model: Intel(R) Xeon(R) Gold 6240 CPU @ 2.60GHz, instruction set [SSE2|AVX|AVX2|AVX512]
Thread count: 36 physical cores, 36 logical processors, using up to 36 threads

Optimize a model with 106503 rows, 71897 columns and 290390 nonzeros
Model fingerprint: 0x7e1cfa18
Variable types: 71876 continuous, 21 integer (21 binary)
Coefficient statistics:
  Matrix range     [1e-03, 3e+02]
  Objective range  [1e+00, 1e+00]
  Bounds range     [3e-05, 3e+00]
  RHS range        [3e-05, 3e+00]
Presolve removed 63426 rows and 36478 columns
Presolve time: 0.44s
Presolved: 43077 rows, 35419 columns, 155546 nonzeros
Variable types: 35398 continuous, 21 integer (21 binary)
Root relaxation presolved: 43077 rows, 35419 columns, 155546 nonzeros

Root barrier log...

Ordering time: 0.01s

Barrier statistics:
 Dense cols : 21
 AA' NZ     : 2.890e+05
 Factor NZ  : 8.423e+05 (roughly 40 MB of memory)
 Factor Ops : 1.932e+07 (less than 1 second per iteration)
 Threads    : 35

                  Objective                Residual
Iter       Primal          Dual         Primal    Dual     Compl     Time
   0   6.70564152e+05 -1.03565791e+08  5.37e+00 5.54e+01  2.92e+03     1s
   1   1.07842130e+05 -2.70565055e+07  7.23e-01 4.82e-09  4.12e+02     1s
   2   4.21249649e+04 -1.20896845e+07  1.78e-01 2.06e-09  1.42e+02     1s
   3   2.13677698e+04 -1.28270520e+06  6.75e-03 4.72e-10  1.32e+01     1s
   4   1.12755833e+04 -1.73436916e+05  9.41e-05 6.38e-11  1.84e+00     1s
   5   3.22820742e+03 -4.40097636e+04  1.34e-05 1.49e-11  4.71e-01     1s
   6   1.08961673e+03 -1.03948165e+04  2.60e-06 3.21e-12  1.14e-01     1s
   7   5.40311481e+02 -2.89718246e+03  6.66e-07 8.60e-13  3.43e-02     1s
   8   2.81714074e+02 -1.02156061e+03  1.61e-07 4.55e-13  1.30e-02     1s
   9   1.95649719e+02 -4.34488281e+02  8.07e-08 4.55e-13  6.28e-03     1s
  10   1.18783076e+02 -1.97751960e+02  3.07e-08 2.27e-13  3.15e-03     1s
  11   8.77594946e+01 -7.58070184e+01  1.50e-08 4.55e-13  1.63e-03     1s
  12   7.29061827e+01  1.37355722e+01  8.80e-09 2.27e-13  5.90e-04     1s
  13   6.47708255e+01  2.27177522e+01  5.71e-09 2.27e-13  4.19e-04     1s
  14   6.12750641e+01  2.40287570e+01  4.36e-09 4.55e-13  3.71e-04     1s
  15   5.92486672e+01  3.35740684e+01  3.59e-09 4.55e-13  2.56e-04     1s
  16   5.67791265e+01  3.66255270e+01  2.67e-09 4.55e-13  2.01e-04     1s
  17   5.48036039e+01  3.90655589e+01  1.98e-09 9.09e-13  1.57e-04     1s
  18   5.41873488e+01  4.34540558e+01  1.78e-09 4.55e-13  1.07e-04     1s
  19   5.23794783e+01  4.41556067e+01  1.07e-09 4.55e-13  8.20e-05     1s
  20   5.13346365e+01  4.54836352e+01  6.72e-10 4.55e-13  5.83e-05     1s
  21   5.08013785e+01  4.64914710e+01  4.70e-10 4.55e-13  4.30e-05     1s
  22   5.05577177e+01  4.74666084e+01  3.64e-10 4.55e-13  3.08e-05     1s
  23   5.01087713e+01  4.77700898e+01  1.84e-10 4.55e-13  2.33e-05     1s
  24   4.98887159e+01  4.82380537e+01  1.02e-10 4.55e-13  1.65e-05     1s
  25   4.98343760e+01  4.89686629e+01  8.14e-11 4.55e-13  8.63e-06     1s
  26   4.97089184e+01  4.91367565e+01  3.39e-11 2.27e-13  5.70e-06     1s
  27   4.96792196e+01  4.92939641e+01  2.35e-11 2.27e-13  3.84e-06     1s
  28   4.96735199e+01  4.93563319e+01  2.14e-11 4.55e-13  3.16e-06     1s
  29   4.96552122e+01  4.93673728e+01  1.55e-11 4.55e-13  2.87e-06     1s
  30   4.96386084e+01  4.94219825e+01  2.24e-11 2.27e-13  2.16e-06     1s
  31   4.96314022e+01  4.94772255e+01  1.77e-11 4.55e-13  1.54e-06     1s
  32   4.96238616e+01  4.95242147e+01  1.33e-11 2.27e-13  9.93e-07     1s
  33   4.96190610e+01  4.95807930e+01  4.82e-11 4.55e-13  3.81e-07     1s
  34   4.96149243e+01  4.95908900e+01  1.59e-10 4.55e-13  2.40e-07     1s
  35   4.96141320e+01  4.95922257e+01  2.86e-10 4.55e-13  2.18e-07     1s
  36   4.96119096e+01  4.96000398e+01  1.05e-10 4.55e-13  1.18e-07     1s
  37   4.96097715e+01  4.96015468e+01  1.17e-10 4.55e-13  8.20e-08     1s
  38   4.96093409e+01  4.96038810e+01  7.99e-11 2.27e-13  5.44e-08     1s
  39   4.96091511e+01  4.96045630e+01  8.31e-11 4.55e-13  4.57e-08     2s
  40   4.96090085e+01  4.96056236e+01  1.61e-10 4.55e-13  3.37e-08     2s
  41   4.96089602e+01  4.96063234e+01  1.34e-10 4.55e-13  2.63e-08     2s
  42   4.96086522e+01  4.96071590e+01  2.12e-10 2.27e-13  1.49e-08     2s
  43   4.96086273e+01  4.96076044e+01  2.30e-10 2.27e-13  1.02e-08     2s
  44   4.96085708e+01  4.96078584e+01  4.84e-10 2.27e-13  7.10e-09     2s
  45   4.96085669e+01  4.96080469e+01  7.58e-10 2.27e-13  5.18e-09     2s
  46   4.96085544e+01  4.96081685e+01  2.10e-09 4.55e-13  3.85e-09     2s
  47   4.96085510e+01  4.96083477e+01  1.55e-09 2.27e-13  2.03e-09     2s
  48   4.96085482e+01  4.96084296e+01  6.00e-10 1.25e-11  1.18e-09     2s
  49   4.96085472e+01  4.96085353e+01  1.80e-10 4.55e-13  1.18e-10     2s
  50   4.96085468e+01  4.96085463e+01  4.30e-09 2.27e-10  5.04e-12     2s
  51   4.96085466e+01  4.96085466e+01  7.77e-11 4.55e-13  3.14e-15     2s

Barrier solved model in 51 iterations and 1.72 seconds (1.50 work units)
Optimal objective 4.96085466e+01


Root relaxation: objective 4.960855e+01, 5989 iterations, 1.50 seconds (1.18 work units)

    Nodes    |    Current Node    |     Objective Bounds      |     Work
 Expl Unexpl |  Obj  Depth IntInf | Incumbent    BestBd   Gap | It/Node Time

     0     0   49.60855    0   18          -   49.60855      -     -    2s
H    0     0                     102.8411500   49.60855  51.8%     -    3s
     0     0   50.65247    0    9  102.84115   50.65247  50.7%     -    6s
H    0     0                      99.0001859   50.65247  48.8%     -    6s
H    0     0                      92.1559637   50.67947  45.0%     -    7s
     0     0   50.70107    0   10   92.15596   50.70107  45.0%     -    7s
     0     0   50.70107    0   11   92.15596   50.70107  45.0%     -    7s
     0     0   50.70107    0   11   92.15596   50.70107  45.0%     -    7s
     0     0   50.79574    0    9   92.15596   50.79574  44.9%     -    8s
H    0     0                      88.4442571   50.81708  42.5%     -    9s
     0     0   50.81708    0    9   88.44426   50.81708  42.5%     -    9s
     0     0   50.87578    0    9   88.44426   50.87578  42.5%     -    9s
H    0     0                      85.0772447   51.01882  40.0%     -   11s
     0     0   51.01882    0   10   85.07724   51.01882  40.0%     -   11s
     0     0   51.04595    0   14   85.07724   51.04595  40.0%     -   12s
     0     0   51.04659    0   11   85.07724   51.04659  40.0%     -   12s
     0     0   51.04659    0   11   85.07724   51.04659  40.0%     -   12s
H    0     0                      82.0497183   51.09640  37.7%     -   13s
H    0     0                      80.6011568   51.20736  36.5%     -   13s
     0     0   51.20736    0   10   80.60116   51.20736  36.5%     -   13s
     0     0   51.27708    0   11   80.60116   51.27708  36.4%     -   14s
     0     0   51.27708    0   12   80.60116   51.27708  36.4%     -   14s
     0     0   51.27708    0   12   80.60116   51.27708  36.4%     -   14s
     0     0   51.27708    0   12   80.60116   51.27708  36.4%     -   17s
H    0     0                      68.7234571   51.27708  25.4%     -   95s
     0     2   51.27708    0   12   68.72346   51.27708  25.4%     -   96s
     7    16   52.43859    3   15   68.72346   52.17657  24.1%  3458  101s
    31    60   54.43896    5   16   68.72346   52.68926  23.3%  2718  105s
    63    96   56.55805    6   15   68.72346   54.34866  20.9%  2828  116s
    99   126   57.83410    7   14   68.72346   54.35114  20.9%  2654  148s
   135   154   60.16894    8   13   68.72346   54.35114  20.9%  2641  151s
   207   203     cutoff    9        68.72346   54.35114  20.9%  2414  155s
   297   242     cutoff   10        68.72346   54.35114  20.9%  2278  161s
   398   272   65.32215    7   12   68.72346   54.69878  20.4%  2152  385s
   519   271     cutoff    8        68.72346   54.69878  20.4%  2059  392s
   597   280     cutoff    8        68.72346   54.69878  20.4%  2010  502s
   669   277     cutoff    8        68.72346   56.56460  17.7%  2002  505s
   863   303   61.39613    9   12   68.72346   56.56460  17.7%  1896  512s
   964   291   65.15811   10   11   68.72346   56.56460  17.7%  1855  516s
  1066   313     cutoff   11        68.72346   56.56460  17.7%  1819  520s
  1166   319   64.31953   10   11   68.72346   56.56460  17.7%  1805  543s
  1224   334   67.66465   11   10   68.72346   56.56460  17.7%  1804  547s
  1372   342   68.63005   15    6   68.72346   57.37296  16.5%  1733  551s
  1510   352     cutoff    8        68.72346   58.80365  14.4%  1690  555s
  1845   320     cutoff   10        68.72346   60.39077  12.1%  1575  563s
  2002   313     cutoff   10        68.72346   61.87154  10.0%  1542  568s
  2147   307   62.09931   10   11   68.72346   61.88694  9.95%  1514  571s
  2355   290   65.42965   14    7   68.72346   61.88694  9.95%  1460  576s
  2574   245   68.59818   19    1   68.72346   62.11440  9.62%  1411  580s
  3047   118   68.17366   15    6   68.72346   62.95379  8.40%  1318  587s
  3288    62   68.12140   13    8   68.72346   62.95379  8.40%  1270  590s

Cutting planes:
  Implied bound: 126
  MIR: 1159
  Relax-and-lift: 161

Explored 3618 nodes (4387782 simplex iterations) in 593.83 seconds (750.37 work units)
Thread count was 36 (of 36 available processors)

Solution count 8: 68.7235 80.6012 82.0497 ... 102.841

Optimal solution found (tolerance 1.00e-02)
Best objective 6.872345706708e+01, best bound 6.872345706708e+01, gap 0.0000%

Gurobi 11.0.0 (linux64) logging started Mon Jul 22 11:19:36 2024

Set parameter LogFile to value "/lustre1/scratch/348/vsc34888/JointResearch/05.Models/06.Benchmarking/M.Random_forest/RTS24_mod1_ByStages_nc300/openStarNet_RTS24_mod1_ByStages_nc300.log"
Set parameter Method to value 2
Set parameter MIPFocus to value 1
Set parameter Presolve to value 2
Set parameter RINS to value 100
Set parameter MIPGap to value 0.01
Set parameter Threads to value 36
Set parameter TimeLimit to value 259200
Set parameter IterationLimit to value 760000000
Gurobi Optimizer version 11.0.0 build v11.0.0rc2 (linux64 - "Rocky Linux 8.9 (Green Obsidian)")

CPU model: Intel(R) Xeon(R) Gold 6240 CPU @ 2.60GHz, instruction set [SSE2|AVX|AVX2|AVX512]
Thread count: 36 physical cores, 36 logical processors, using up to 36 threads

Optimize a model with 106503 rows, 71876 columns and 265169 nonzeros
Model fingerprint: 0x9b378d83
Coefficient statistics:
  Matrix range     [1e-03, 3e+02]
  Objective range  [1e+00, 1e+00]
  Bounds range     [3e-05, 3e+00]
  RHS range        [3e-05, 3e+01]
Presolve removed 89418 rows and 40994 columns
Presolve time: 0.14s
Presolved: 17085 rows, 31339 columns, 75151 nonzeros

Ordering time: 0.00s

Barrier statistics:
 AA' NZ     : 4.145e+04
 Factor NZ  : 1.611e+05 (roughly 17 MB of memory)
 Factor Ops : 2.311e+06 (less than 1 second per iteration)
 Threads    : 36

                  Objective                Residual
Iter       Primal          Dual         Primal    Dual     Compl     Time
   0   3.14237401e+06 -3.10655415e+07  4.28e+01 2.48e+01  8.31e+03     0s
   1   1.76020123e+05 -2.17737643e+07  1.98e+00 8.44e-13  7.23e+02     0s
   2   4.82854759e+04 -5.06780934e+06  3.65e-01 1.10e-12  1.28e+02     0s
   3   2.43582117e+04 -5.76145989e+05  2.58e-02 5.96e-13  1.20e+01     0s
   4   1.22698163e+04 -1.42009271e+05  2.01e-03 5.68e-13  2.89e+00     0s
   5   4.23632605e+03 -3.06232253e+04  1.18e-04 2.84e-13  6.48e-01     0s
   6   1.50599927e+03 -7.66463232e+03  2.02e-05 2.27e-13  1.70e-01     0s
   7   6.34939979e+02 -2.12421373e+03  4.39e-06 2.35e-13  5.13e-02     0s
   8   4.07724275e+02 -6.99157470e+02  1.83e-06 2.27e-13  2.06e-02     0s
   9   2.17290106e+02 -2.77872502e+02  5.41e-07 1.14e-13  9.20e-03     0s
  10   1.64470977e+02 -1.04116210e+02  3.23e-07 1.14e-13  4.99e-03     0s
  11   1.02957157e+02 -1.29325611e+00  9.81e-08 1.14e-13  1.94e-03     0s
  12   8.09768607e+01  5.47509774e+01  3.10e-08 1.14e-13  4.87e-04     0s
  13   7.46250108e+01  6.48464927e+01  1.44e-08 1.14e-13  1.82e-04     0s
  14   7.10462609e+01  6.71667163e+01  5.57e-09 2.27e-13  7.21e-05     0s
  15   6.97826179e+01  6.81213849e+01  2.50e-09 2.27e-13  3.09e-05     0s
  16   6.92573010e+01  6.84935264e+01  1.24e-09 2.27e-13  1.42e-05     0s
  17   6.88914244e+01  6.86484624e+01  3.70e-10 1.14e-13  4.51e-06     0s
  18   6.87546439e+01  6.87088550e+01  1.26e-10 2.27e-13  8.51e-07     0s
  19   6.87286515e+01  6.87212142e+01  3.69e-10 1.14e-13  1.38e-07     0s
  20   6.87235341e+01  6.87232565e+01  5.56e-10 2.27e-13  5.16e-09     0s
  21   6.87234601e+01  6.87234460e+01  1.46e-09 1.14e-13  2.61e-10     0s
  22   6.87234571e+01  6.87234571e+01  3.62e-10 2.27e-13  2.61e-13     0s
  23   6.87234571e+01  6.87234571e+01  3.95e-12 1.14e-13  9.56e-18     0s

Barrier solved model in 23 iterations and 0.38 seconds (0.35 work units)
Optimal objective 6.87234571e+01

Crossover log...

    3758 DPushes remaining with DInf 0.0000000e+00                 0s
       0 DPushes remaining with DInf 0.0000000e+00                 0s

     916 PPushes remaining with PInf 0.0000000e+00                 0s
       0 PPushes remaining with PInf 0.0000000e+00                 0s

  Push phase complete: Pinf 0.0000000e+00, Dinf 1.4201383e-13      0s

Iteration    Objective       Primal Inf.    Dual Inf.      Time
     930    6.8723457e+01   0.000000e+00   0.000000e+00      0s

Use crossover to convert LP symmetric solution to basic solution...
Crossover log...

       0 DPushes remaining with DInf 0.0000000e+00                 0s

     678 PPushes remaining with PInf 0.0000000e+00                 0s
       0 PPushes remaining with PInf 0.0000000e+00                 0s

  Push phase complete: Pinf 0.0000000e+00, Dinf 1.3473524e-13      0s

Iteration    Objective       Primal Inf.    Dual Inf.      Time
    1645    6.8723457e+01   0.000000e+00   0.000000e+00      1s

Solved in 1645 iterations and 0.55 seconds (0.44 work units)
Optimal objective  6.872345707e+01
